c [ 1 2 3 -4 -5 -6 7 8 -9 -10 ]
c r=8.000 p0=0.080
p cnf 10 80
4 10 2 0
9 7 4 0
10 7 -2 0
2 1 -8 0
9 7 -8 0
10 5 -9 0
4 5 -6 0
3 10 -1 0
-7 5 2 0
-9 6 -1 0
-3 -5 -8 0
-4 -2 6 0
-9 6 8 0
-9 5 1 0
-4 -3 1 0
9 -7 -6 0
7 -9 4 0
8 -7 -9 0
-4 -8 10 0
-9 -4 2 0
-9 -6 -1 0
-5 6 -7 0
7 -1 6 0
1 5 10 0
10 3 -6 0
7 3 -9 0
-10 5 -1 0
-3 10 8 0
8 -3 9 0
-2 3 5 0
-10 -4 -2 0
5 7 4 0
9 -3 2 0
-10 2 -3 0
10 8 -2 0
-8 -10 4 0
3 -5 -2 0
-2 -7 -5 0
7 -1 10 0
-3 6 8 0
-7 6 -4 0
8 6 7 0
-1 -4 -7 0
-9 6 5 0
-1 3 -8 0
10 4 7 0
7 -2 9 0
1 4 -6 0
-10 4 -2 0
-4 -8 1 0
5 6 7 0
-2 9 3 0
-9 -5 -8 0
4 5 2 0
-2 3 -5 0
-3 1 5 0
-6 -4 -2 0
6 10 7 0
4 -9 -8 0
-4 -8 5 0
9 -5 4 0
-8 5 -10 0
-4 -5 -2 0
-7 -5 -1 0
-7 1 -8 0
10 -2 -9 0
-2 -6 -10 0
-10 -5 6 0
6 7 -3 0
-5 7 -2 0
-3 1 5 0
-5 -7 9 0
-6 3 7 0
-8 5 1 0
2 -4 1 0
3 -8 -6 0
3 4 6 0
9 6 7 0
-2 9 -5 0
-6 -10 -2 0
